Route #1: 7 16 29 18 50 35 45 49 3 41 33 20
Route #2: 21 22 37 38 46 6 12 9
Route #3: 26 11 31 19 44 17 15 43 25 4 8 28
Route #4: 40 24 32 39 14 27 2 47
Route #5: 34 42 48 23 13 36 30 10 5
Route #6: 1
Route #7: 
cost 877.2745043340487
